50
120
100
99
98
96
95
95
92
91
87
85
85
84
78
78
77
76
74
69
68
67
65
64
62
55
52
45
43
41
40
38
33
29
27
27
26
24
24
24
23
22
22
21
14
13
12
10
8
2
1
1
